proyfinal/src/viki/013/experimentInOfficeAgust.take6.output/ae82d235-7a59-4517-bdb7-3782e516089b.als.dat
{'cnf.clauses': '118081',
 'cnf.totvars': '69608',
 'conflict literals': '1',
 'conflicts': '2',
 'decisions': '768',
 'memused.mb': '14.52',
 'outcome': 'UNSAT',
 'propagations': '18950',
 'restarts': '1',
 'solver.msecs': 28,
 'task.msecs': 79}
