proyfinal/src/viki/013/experimentInOfficeAgust.take6.output/ae82d235-7a59-4517-bdb7-3782e516089b.als.out
Reading from standard input... Use '--help' for help.
============================[ Problem Statistics ]=============================
|                                                                             |
|  Number of variables:         69608                                         |
|  Number of clauses:          118081                                         |
|  Parse time:                   0.02 s                                       |
|                                                                             |
============================[ Search Statistics ]==============================
| Conflicts |          ORIGINAL         |          LEARNT          | Progress |
|           |    Vars  Clauses Literals |    Limit  Clauses Lit/Cl |          |
===============================================================================
===============================================================================
restarts              : 1
conflicts             : 2              (69 /sec)
decisions             : 768            (0.00 % random) (26485 /sec)
propagations          : 18950          (653516 /sec)
conflict literals     : 1              (0.00 % deleted)
Memory used           : 14.52 MB
CPU time              : 0.028997 s

UNSATISFIABLE
